;; translated from ./lustre/cd_e7_621.vmt
;; original benchmark available at: https://es-static.fbk.eu/people/griggio/ic3ia/index.html
;; author: Alberto Griggio <griggio@fbk.eu>
(set-logic HORN)
(declare-fun state (Int Bool Int Int Bool Bool Bool Bool Bool Bool Bool Bool Int Bool Int Bool Bool Int Bool Bool Bool Bool Int) Bool)
(assert (forall ((|call_Property.ok__AT0| Bool) (|call_Controller.speed__AT0| Int) (|plus__AT0| Bool) (|call_Controller.plus__AT0| Bool) (|minus__AT0| Bool) (|_OK___AT0| Bool) (|call_Controller.minus__AT0| Bool) (|call_Sofar.Sofar__AT0| Bool) (|call_Environment.ok__AT0| Bool) (|call_Property.flby2__AT0| Bool) (|param_diff__AT0| Int) (|call_Environment.xite2__AT0| Bool) (|call_Environment.xite__AT0| Bool) (|call_Property.cpt__AT0| Int) (|call_Controller.flby__AT1| Int) (|param_diff__AT1| Int) (|call_Environment.flby__AT1| Bool) (|call_Environment.flby2__AT1| Bool) (|speed__AT1| Int) (|realistic__AT1| Bool) (|call_Sofar.flby__AT1| Bool) (|call_Property.xite__AT1| Int) (|call_Property.acceptable__AT1| Bool) (|call_Property.flby__AT1| Int) (|call_Property.flby2__AT1| Bool) (|_OK___AT1| Bool) (|call_Sofar.Sofar__AT1| Bool) (|call_Property.ok__AT1| Bool) (|call_Controller.speed__AT1| Int) (|plus__AT1| Bool) (|call_Controller.plus__AT1| Bool) (|minus__AT1| Bool) (|call_Controller.minus__AT1| Bool) (|call_Environment.ok__AT1| Bool) (|call_Environment.xite2__AT1| Bool) (|call_Environment.xite__AT1| Bool) (|call_Property.cpt__AT1| Int) (|speed__AT0| Int) (|realistic__AT0| Bool) (|call_Sofar.flby__AT0| Bool) (|call_Controller.flby__AT0| Int) (|call_Environment.flby__AT0| Bool) (|call_Environment.flby2__AT0| Bool) (|call_Property.acceptable__AT0| Bool) (|call_Property.xite__AT0| Int) (|call_Property.flby__AT0| Int)) (=> (let ((.def_102 (<= 0 speed__AT0)))
(let ((.def_103 (and realistic__AT0 .def_102)))
(let ((.def_100 (<= 16 speed__AT0)))
(let ((.def_101 (not .def_100)))
(let ((.def_104 (and .def_101 .def_103)))
(let ((.def_105 (= call_Sofar.flby__AT0 .def_104)))
(let ((.def_96 (= call_Controller.flby__AT0 0)))
(let ((.def_97 (and call_Environment.flby__AT0 .def_96)))
(let ((.def_61 (not call_Environment.flby2__AT0)))
(let ((.def_98 (and .def_61 .def_97)))
(let ((.def_106 (and .def_98 .def_105)))
(let ((.def_94 (not call_Property.acceptable__AT0)))
(let ((.def_93 (= call_Property.xite__AT0 0)))
(let ((.def_95 (or .def_93 .def_94)))
(let ((.def_107 (and .def_95 .def_106)))
(let ((.def_91 (= call_Property.flby__AT0 0)))
(let ((.def_108 (and .def_91 .def_107)))
(let ((.def_109 (and call_Property.flby2__AT0 .def_108)))
(let ((.def_71 (not call_Sofar.Sofar__AT0)))
(let ((.def_72 (or call_Property.ok__AT0 .def_71)))
(let ((.def_74 (= .def_72 _OK___AT0)))
(let ((.def_70 (= speed__AT0 call_Controller.speed__AT0)))
(let ((.def_75 (and .def_70 .def_74)))
(let ((.def_69 (= call_Controller.plus__AT0 plus__AT0)))
(let ((.def_76 (and .def_69 .def_75)))
(let ((.def_67 (= call_Controller.minus__AT0 minus__AT0)))
(let ((.def_77 (and .def_67 .def_76)))
(let ((.def_65 (= call_Environment.ok__AT0 realistic__AT0)))
(let ((.def_78 (and .def_65 .def_77)))
(let ((.def_59 (<= param_diff__AT0 (- 1))))
(let ((.def_60 (= call_Environment.xite2__AT0 .def_59)))
(let ((.def_62 (or .def_60 .def_61)))
(let ((.def_55 (<= 1 param_diff__AT0)))
(let ((.def_56 (= call_Environment.xite__AT0 .def_55)))
(let ((.def_53 (not call_Environment.flby__AT0)))
(let ((.def_57 (or .def_53 .def_56)))
(let ((.def_63 (and .def_57 .def_62)))
(let ((.def_79 (and .def_63 .def_78)))
(let ((.def_52 (= call_Controller.speed__AT0 call_Controller.flby__AT0)))
(let ((.def_80 (and .def_52 .def_79)))
(let ((.def_48 (<= call_Controller.speed__AT0 9)))
(let ((.def_50 (= .def_48 call_Controller.plus__AT0)))
(let ((.def_81 (and .def_50 .def_80)))
(let ((.def_44 (<= 11 call_Controller.speed__AT0)))
(let ((.def_46 (= .def_44 call_Controller.minus__AT0)))
(let ((.def_82 (and .def_46 .def_81)))
(let ((.def_36 (<= (- 4) param_diff__AT0)))
(let ((.def_34 (<= param_diff__AT0 4)))
(let ((.def_37 (and .def_34 .def_36)))
(let ((.def_38 (and call_Environment.xite__AT0 .def_37)))
(let ((.def_39 (and call_Environment.xite2__AT0 .def_38)))
(let ((.def_41 (= .def_39 call_Environment.ok__AT0)))
(let ((.def_83 (and .def_41 .def_82)))
(let ((.def_31 (or call_Environment.xite__AT0 call_Environment.flby__AT0)))
(let ((.def_84 (and .def_31 .def_83)))
(let ((.def_28 (or call_Environment.xite2__AT0 call_Environment.flby2__AT0)))
(let ((.def_85 (and .def_28 .def_84)))
(let ((.def_25 (= call_Sofar.flby__AT0 call_Sofar.Sofar__AT0)))
(let ((.def_86 (and .def_25 .def_85)))
(let ((.def_22 (= call_Property.flby2__AT0 call_Property.ok__AT0)))
(let ((.def_87 (and .def_22 .def_86)))
(let ((.def_19 (= call_Property.flby__AT0 call_Property.cpt__AT0)))
(let ((.def_88 (and .def_19 .def_87)))
(let ((.def_13 (<= 8 speed__AT0)))
(let ((.def_11 (<= speed__AT0 12)))
(let ((.def_14 (and .def_11 .def_13)))
(let ((.def_16 (= .def_14 call_Property.acceptable__AT0)))
(let ((.def_89 (and .def_16 .def_88)))
(let ((.def_110 (and .def_89 .def_109)))
.def_110))))))))))))))))))))))))))))))))))))))))))))))))))))))))))))))))))))) (state |speed__AT0| |call_Property.acceptable__AT0| |call_Property.flby__AT0| |call_Property.cpt__AT0| |call_Property.flby2__AT0| |call_Property.ok__AT0| |call_Sofar.flby__AT0| |call_Sofar.Sofar__AT0| |call_Environment.xite2__AT0| |call_Environment.flby2__AT0| |call_Environment.xite__AT0| |call_Environment.flby__AT0| |param_diff__AT0| |call_Environment.ok__AT0| |call_Controller.speed__AT0| |call_Controller.minus__AT0| |call_Controller.plus__AT0| |call_Controller.flby__AT0| |realistic__AT0| |minus__AT0| |plus__AT0| |_OK___AT0| |call_Property.xite__AT0|))))
(assert (forall ((|call_Property.ok__AT0| Bool) (|call_Controller.speed__AT0| Int) (|plus__AT0| Bool) (|call_Controller.plus__AT0| Bool) (|minus__AT0| Bool) (|_OK___AT0| Bool) (|call_Controller.minus__AT0| Bool) (|call_Sofar.Sofar__AT0| Bool) (|call_Environment.ok__AT0| Bool) (|call_Property.flby2__AT0| Bool) (|param_diff__AT0| Int) (|call_Environment.xite2__AT0| Bool) (|call_Environment.xite__AT0| Bool) (|call_Property.cpt__AT0| Int) (|call_Controller.flby__AT1| Int) (|param_diff__AT1| Int) (|call_Environment.flby__AT1| Bool) (|call_Environment.flby2__AT1| Bool) (|speed__AT1| Int) (|realistic__AT1| Bool) (|call_Sofar.flby__AT1| Bool) (|call_Property.xite__AT1| Int) (|call_Property.acceptable__AT1| Bool) (|call_Property.flby__AT1| Int) (|call_Property.flby2__AT1| Bool) (|_OK___AT1| Bool) (|call_Sofar.Sofar__AT1| Bool) (|call_Property.ok__AT1| Bool) (|call_Controller.speed__AT1| Int) (|plus__AT1| Bool) (|call_Controller.plus__AT1| Bool) (|minus__AT1| Bool) (|call_Controller.minus__AT1| Bool) (|call_Environment.ok__AT1| Bool) (|call_Environment.xite2__AT1| Bool) (|call_Environment.xite__AT1| Bool) (|call_Property.cpt__AT1| Int) (|speed__AT0| Int) (|realistic__AT0| Bool) (|call_Sofar.flby__AT0| Bool) (|call_Controller.flby__AT0| Int) (|call_Environment.flby__AT0| Bool) (|call_Environment.flby2__AT0| Bool) (|call_Property.acceptable__AT0| Bool) (|call_Property.xite__AT0| Int) (|call_Property.flby__AT0| Int)) (=> (and (state |speed__AT0| |call_Property.acceptable__AT0| |call_Property.flby__AT0| |call_Property.cpt__AT0| |call_Property.flby2__AT0| |call_Property.ok__AT0| |call_Sofar.flby__AT0| |call_Sofar.Sofar__AT0| |call_Environment.xite2__AT0| |call_Environment.flby2__AT0| |call_Environment.xite__AT0| |call_Environment.flby__AT0| |param_diff__AT0| |call_Environment.ok__AT0| |call_Controller.speed__AT0| |call_Controller.minus__AT0| |call_Controller.plus__AT0| |call_Controller.flby__AT0| |realistic__AT0| |minus__AT0| |plus__AT0| |_OK___AT0| |call_Property.xite__AT0|) (let ((.def_206 (* (- 1) call_Controller.flby__AT1)))
(let ((.def_207 (+ param_diff__AT1 .def_206)))
(let ((.def_208 (+ call_Controller.speed__AT0 .def_207)))
(let ((.def_209 (= .def_208 0)))
(let ((.def_205 (= plus__AT0 call_Environment.flby__AT1)))
(let ((.def_210 (and .def_205 .def_209)))
(let ((.def_204 (= minus__AT0 call_Environment.flby2__AT1)))
(let ((.def_211 (and .def_204 .def_210)))
(let ((.def_199 (<= 0 speed__AT1)))
(let ((.def_200 (and realistic__AT1 .def_199)))
(let ((.def_197 (<= 16 speed__AT1)))
(let ((.def_198 (not .def_197)))
(let ((.def_201 (and .def_198 .def_200)))
(let ((.def_202 (or call_Sofar.Sofar__AT0 .def_201)))
(let ((.def_203 (= call_Sofar.flby__AT1 .def_202)))
(let ((.def_212 (and .def_203 .def_211)))
(let ((.def_193 (* (- 1) call_Property.xite__AT1)))
(let ((.def_194 (+ call_Property.cpt__AT0 .def_193)))
(let ((.def_195 (= .def_194 (- 1))))
(let ((.def_196 (or call_Property.acceptable__AT1 .def_195)))
(let ((.def_213 (and .def_196 .def_212)))
(let ((.def_191 (= call_Property.xite__AT1 0)))
(let ((.def_190 (not call_Property.acceptable__AT1)))
(let ((.def_192 (or .def_190 .def_191)))
(let ((.def_214 (and .def_192 .def_213)))
(let ((.def_189 (= call_Property.flby__AT1 call_Property.xite__AT1)))
(let ((.def_215 (and .def_189 .def_214)))
(let ((.def_186 (<= call_Property.cpt__AT0 7)))
(let ((.def_187 (= call_Property.flby2__AT1 .def_186)))
(let ((.def_216 (and .def_187 .def_215)))
(let ((.def_165 (not call_Sofar.Sofar__AT1)))
(let ((.def_166 (or call_Property.ok__AT1 .def_165)))
(let ((.def_168 (= .def_166 _OK___AT1)))
(let ((.def_164 (= speed__AT1 call_Controller.speed__AT1)))
(let ((.def_169 (and .def_164 .def_168)))
(let ((.def_163 (= call_Controller.plus__AT1 plus__AT1)))
(let ((.def_170 (and .def_163 .def_169)))
(let ((.def_161 (= call_Controller.minus__AT1 minus__AT1)))
(let ((.def_171 (and .def_161 .def_170)))
(let ((.def_159 (= call_Environment.ok__AT1 realistic__AT1)))
(let ((.def_172 (and .def_159 .def_171)))
(let ((.def_154 (<= param_diff__AT1 (- 1))))
(let ((.def_155 (= call_Environment.xite2__AT1 .def_154)))
(let ((.def_153 (not call_Environment.flby2__AT1)))
(let ((.def_156 (or .def_153 .def_155)))
(let ((.def_150 (<= 1 param_diff__AT1)))
(let ((.def_151 (= call_Environment.xite__AT1 .def_150)))
(let ((.def_149 (not call_Environment.flby__AT1)))
(let ((.def_152 (or .def_149 .def_151)))
(let ((.def_157 (and .def_152 .def_156)))
(let ((.def_173 (and .def_157 .def_172)))
(let ((.def_148 (= call_Controller.speed__AT1 call_Controller.flby__AT1)))
(let ((.def_174 (and .def_148 .def_173)))
(let ((.def_144 (<= call_Controller.speed__AT1 9)))
(let ((.def_146 (= .def_144 call_Controller.plus__AT1)))
(let ((.def_175 (and .def_146 .def_174)))
(let ((.def_141 (<= 11 call_Controller.speed__AT1)))
(let ((.def_143 (= .def_141 call_Controller.minus__AT1)))
(let ((.def_176 (and .def_143 .def_175)))
(let ((.def_134 (<= (- 4) param_diff__AT1)))
(let ((.def_133 (<= param_diff__AT1 4)))
(let ((.def_135 (and .def_133 .def_134)))
(let ((.def_136 (and call_Environment.xite__AT1 .def_135)))
(let ((.def_137 (and call_Environment.xite2__AT1 .def_136)))
(let ((.def_139 (= .def_137 call_Environment.ok__AT1)))
(let ((.def_177 (and .def_139 .def_176)))
(let ((.def_131 (or call_Environment.flby__AT1 call_Environment.xite__AT1)))
(let ((.def_178 (and .def_131 .def_177)))
(let ((.def_128 (or call_Environment.flby2__AT1 call_Environment.xite2__AT1)))
(let ((.def_179 (and .def_128 .def_178)))
(let ((.def_125 (= call_Sofar.Sofar__AT1 call_Sofar.flby__AT1)))
(let ((.def_180 (and .def_125 .def_179)))
(let ((.def_122 (= call_Property.ok__AT1 call_Property.flby2__AT1)))
(let ((.def_181 (and .def_122 .def_180)))
(let ((.def_119 (= call_Property.cpt__AT1 call_Property.flby__AT1)))
(let ((.def_182 (and .def_119 .def_181)))
(let ((.def_113 (<= 8 speed__AT1)))
(let ((.def_112 (<= speed__AT1 12)))
(let ((.def_114 (and .def_112 .def_113)))
(let ((.def_116 (= .def_114 call_Property.acceptable__AT1)))
(let ((.def_183 (and .def_116 .def_182)))
(let ((.def_71 (not call_Sofar.Sofar__AT0)))
(let ((.def_72 (or call_Property.ok__AT0 .def_71)))
(let ((.def_74 (= .def_72 _OK___AT0)))
(let ((.def_70 (= speed__AT0 call_Controller.speed__AT0)))
(let ((.def_75 (and .def_70 .def_74)))
(let ((.def_69 (= call_Controller.plus__AT0 plus__AT0)))
(let ((.def_76 (and .def_69 .def_75)))
(let ((.def_67 (= call_Controller.minus__AT0 minus__AT0)))
(let ((.def_77 (and .def_67 .def_76)))
(let ((.def_65 (= call_Environment.ok__AT0 realistic__AT0)))
(let ((.def_78 (and .def_65 .def_77)))
(let ((.def_61 (not call_Environment.flby2__AT0)))
(let ((.def_59 (<= param_diff__AT0 (- 1))))
(let ((.def_60 (= call_Environment.xite2__AT0 .def_59)))
(let ((.def_62 (or .def_60 .def_61)))
(let ((.def_55 (<= 1 param_diff__AT0)))
(let ((.def_56 (= call_Environment.xite__AT0 .def_55)))
(let ((.def_53 (not call_Environment.flby__AT0)))
(let ((.def_57 (or .def_53 .def_56)))
(let ((.def_63 (and .def_57 .def_62)))
(let ((.def_79 (and .def_63 .def_78)))
(let ((.def_52 (= call_Controller.speed__AT0 call_Controller.flby__AT0)))
(let ((.def_80 (and .def_52 .def_79)))
(let ((.def_48 (<= call_Controller.speed__AT0 9)))
(let ((.def_50 (= .def_48 call_Controller.plus__AT0)))
(let ((.def_81 (and .def_50 .def_80)))
(let ((.def_44 (<= 11 call_Controller.speed__AT0)))
(let ((.def_46 (= .def_44 call_Controller.minus__AT0)))
(let ((.def_82 (and .def_46 .def_81)))
(let ((.def_36 (<= (- 4) param_diff__AT0)))
(let ((.def_34 (<= param_diff__AT0 4)))
(let ((.def_37 (and .def_34 .def_36)))
(let ((.def_38 (and call_Environment.xite__AT0 .def_37)))
(let ((.def_39 (and call_Environment.xite2__AT0 .def_38)))
(let ((.def_41 (= .def_39 call_Environment.ok__AT0)))
(let ((.def_83 (and .def_41 .def_82)))
(let ((.def_31 (or call_Environment.xite__AT0 call_Environment.flby__AT0)))
(let ((.def_84 (and .def_31 .def_83)))
(let ((.def_28 (or call_Environment.xite2__AT0 call_Environment.flby2__AT0)))
(let ((.def_85 (and .def_28 .def_84)))
(let ((.def_25 (= call_Sofar.flby__AT0 call_Sofar.Sofar__AT0)))
(let ((.def_86 (and .def_25 .def_85)))
(let ((.def_22 (= call_Property.flby2__AT0 call_Property.ok__AT0)))
(let ((.def_87 (and .def_22 .def_86)))
(let ((.def_19 (= call_Property.flby__AT0 call_Property.cpt__AT0)))
(let ((.def_88 (and .def_19 .def_87)))
(let ((.def_13 (<= 8 speed__AT0)))
(let ((.def_11 (<= speed__AT0 12)))
(let ((.def_14 (and .def_11 .def_13)))
(let ((.def_16 (= .def_14 call_Property.acceptable__AT0)))
(let ((.def_89 (and .def_16 .def_88)))
(let ((.def_184 (and .def_89 .def_183)))
(let ((.def_217 (and .def_184 .def_216)))
.def_217))))))))))))))))))))))))))))))))))))))))))))))))))))))))))))))))))))))))))))))))))))))))))))))))))))))))))))))))))))))))))))))))))))))) (state |speed__AT1| |call_Property.acceptable__AT1| |call_Property.flby__AT1| |call_Property.cpt__AT1| |call_Property.flby2__AT1| |call_Property.ok__AT1| |call_Sofar.flby__AT1| |call_Sofar.Sofar__AT1| |call_Environment.xite2__AT1| |call_Environment.flby2__AT1| |call_Environment.xite__AT1| |call_Environment.flby__AT1| |param_diff__AT1| |call_Environment.ok__AT1| |call_Controller.speed__AT1| |call_Controller.minus__AT1| |call_Controller.plus__AT1| |call_Controller.flby__AT1| |realistic__AT1| |minus__AT1| |plus__AT1| |_OK___AT1| |call_Property.xite__AT1|))))
(assert (forall ((|call_Property.ok__AT0| Bool) (|call_Controller.speed__AT0| Int) (|plus__AT0| Bool) (|call_Controller.plus__AT0| Bool) (|minus__AT0| Bool) (|_OK___AT0| Bool) (|call_Controller.minus__AT0| Bool) (|call_Sofar.Sofar__AT0| Bool) (|call_Environment.ok__AT0| Bool) (|call_Property.flby2__AT0| Bool) (|param_diff__AT0| Int) (|call_Environment.xite2__AT0| Bool) (|call_Environment.xite__AT0| Bool) (|call_Property.cpt__AT0| Int) (|call_Controller.flby__AT1| Int) (|param_diff__AT1| Int) (|call_Environment.flby__AT1| Bool) (|call_Environment.flby2__AT1| Bool) (|speed__AT1| Int) (|realistic__AT1| Bool) (|call_Sofar.flby__AT1| Bool) (|call_Property.xite__AT1| Int) (|call_Property.acceptable__AT1| Bool) (|call_Property.flby__AT1| Int) (|call_Property.flby2__AT1| Bool) (|_OK___AT1| Bool) (|call_Sofar.Sofar__AT1| Bool) (|call_Property.ok__AT1| Bool) (|call_Controller.speed__AT1| Int) (|plus__AT1| Bool) (|call_Controller.plus__AT1| Bool) (|minus__AT1| Bool) (|call_Controller.minus__AT1| Bool) (|call_Environment.ok__AT1| Bool) (|call_Environment.xite2__AT1| Bool) (|call_Environment.xite__AT1| Bool) (|call_Property.cpt__AT1| Int) (|speed__AT0| Int) (|realistic__AT0| Bool) (|call_Sofar.flby__AT0| Bool) (|call_Controller.flby__AT0| Int) (|call_Environment.flby__AT0| Bool) (|call_Environment.flby2__AT0| Bool) (|call_Property.acceptable__AT0| Bool) (|call_Property.xite__AT0| Int) (|call_Property.flby__AT0| Int)) (=> (state |speed__AT0| |call_Property.acceptable__AT0| |call_Property.flby__AT0| |call_Property.cpt__AT0| |call_Property.flby2__AT0| |call_Property.ok__AT0| |call_Sofar.flby__AT0| |call_Sofar.Sofar__AT0| |call_Environment.xite2__AT0| |call_Environment.flby2__AT0| |call_Environment.xite__AT0| |call_Environment.flby__AT0| |param_diff__AT0| |call_Environment.ok__AT0| |call_Controller.speed__AT0| |call_Controller.minus__AT0| |call_Controller.plus__AT0| |call_Controller.flby__AT0| |realistic__AT0| |minus__AT0| |plus__AT0| |_OK___AT0| |call_Property.xite__AT0|) _OK___AT0)))
(check-sat)
